experiment/data/lkh-res/Vrp-Set-P-n45/Vrp-Set-P-n45-lkh/0.lkh1.vrp
NAME : 0
COMMENT : CVRP Instance
TYPE : CVRP
DIMENSION : 45
EDGE_WEIGHT_TYPE : EUC_2D
CAPACITY : 150
NODE_COORD_SECTION
1	3000	4000
2	3700	5200
3	4900	4900
4	5200	6400
5	2000	2600
6	4000	3000
7	2100	4700
8	1700	6300
9	3100	6200
10	5200	3300
11	5100	2100
12	4200	4100
13	3100	3200
14	500	2500
15	1200	4200
16	3600	1600
17	5200	4100
18	2700	2300
19	1700	3300
20	1300	1300
21	5700	5800
22	6200	4200
23	4200	5700
24	1600	5700
25	800	5200
26	700	3800
27	2700	6800
28	3000	4800
29	4300	6700
30	5800	4800
31	5800	2700
32	3700	6900
33	3800	4600
34	4600	1000
35	6100	3300
36	6200	6300
37	6300	6900
38	3200	2200
39	4500	3500
40	5900	1500
41	500	600
42	1000	1700
43	2100	1000
44	500	6400
45	3000	1500
DEMAND_SECTION
1	0
2	7
3	30
4	16
5	9
6	21
7	15
8	19
9	23
10	11
11	5
12	19
13	29
14	23
15	21
16	10
17	15
18	3
19	41
20	9
21	28
22	8
23	8
24	16
25	10
26	28
27	7
28	15
29	14
30	6
31	19
32	11
33	12
34	23
35	26
36	17
37	6
38	9
39	15
40	14
41	7
42	27
43	13
44	11
45	16
DEPOT_SECTION
1
-1
EOF
