experiment/data/lkh-res/Vrp-Set-P-n45/Vrp-Set-P-n45-lkh/0.lkh1.tour
NAME : 0.51275.tour
COMMENT : Length = 51275
COMMENT : Found by LKH-3 [Keld Helsgaun] Tue Apr  9 02:37:14 2024
TYPE : TOUR
DIMENSION : 49
TOUR_SECTION
1
6
11
40
34
16
38
13
46
33
2
23
21
36
37
4
29
32
27
9
49
39
10
31
35
22
30
3
17
12
48
5
18
45
43
20
41
42
14
19
47
7
15
26
25
44
8
24
28
-1
EOF
